
Gurobi 7.5.2 (linux64) logging started Sat Jul  7 16:20:50 2018

Changed value of parameter LogFile to result/ilp/simNo_7-n_100-m_40-s_4-minVAF_0.05-cov_10000-k_1-fn_0.10-fp_0.0001-na_0.15.ILP.gurobiSolverLog
   Prev: gurobi.log  Default: 
Changed value of parameter TimeLimit to 86400.0
   Prev: 1e+100  Min: 0.0  Max: 1e+100  Default: 1e+100
Optimize a model with 639293 rows, 10765 columns and 1940420 nonzeros
Variable types: 0 continuous, 10765 integer (10765 binary)
Coefficient statistics:
  Matrix range     [2e-04, 4e+00]
  Objective range  [3e-01, 9e+00]
  Bounds range     [1e+00, 1e+00]
  RHS range        [3e-01, 2e+00]
Found heuristic solution: objective -18044.56479
Presolve removed 127566 rows and 990 columns (presolve time = 6s) ...
Presolve removed 129714 rows and 990 columns (presolve time = 10s) ...
Presolve removed 129714 rows and 990 columns (presolve time = 15s) ...
Presolve removed 130259 rows and 990 columns (presolve time = 20s) ...
Presolve removed 184759 rows and 1535 columns (presolve time = 27s) ...
Presolve removed 184759 rows and 1535 columns
Presolve time: 28.50s
Presolved: 454534 rows, 9230 columns, 1368469 nonzeros
Variable types: 0 continuous, 9230 integer (9230 binary)
Presolved: 9230 rows, 463764 columns, 1377699 nonzeros

Presolve removed 9230 rows and 463764 columns

Root simplex log...

Iteration    Objective       Primal Inf.    Dual Inf.      Time
       0    6.7454221e+00   0.000000e+00   8.860000e+04     34s
    9202   -1.9520607e+02   0.000000e+00   1.117903e+06     35s
   24149   -3.3951389e+02   0.000000e+00   6.577557e+04     40s
   33421   -3.6988137e+02   0.000000e+00   1.986250e+02     45s
   33616   -3.6961886e+02   0.000000e+00   0.000000e+00     46s
   33616   -3.6961886e+02   0.000000e+00   0.000000e+00     47s

Root relaxation: objective -3.696189e+02, 33616 iterations, 16.16 seconds
Total elapsed time = 106.50s
Total elapsed time = 147.57s
Total elapsed time = 185.59s

    Nodes    |    Current Node    |     Objective Bounds      |     Work
 Expl Unexpl |  Obj  Depth IntInf | Incumbent    BestBd   Gap | It/Node Time

     0     0 -369.61886    0 1164 -18044.565 -369.61886  98.0%     -  194s
H    0     0                    -468.0088350 -369.61886  21.0%     -  199s
H    0     0                    -463.6143858 -369.61886  20.3%     -  201s
     0     0 -374.01331    0 1129 -463.61439 -374.01331  19.3%     -  256s
H    0     0                    -422.0431452 -374.01331  11.4%     -  271s
     0     0 -374.01331    0 1138 -422.04315 -374.01331  11.4%     -  273s
     0     0 -378.40776    0 1103 -422.04315 -378.40776  10.3%     -  313s
H    0     0                    -407.2807821 -378.40776  7.09%     -  319s
     0     0 -379.50637    0 1046 -407.28078 -379.50637  6.82%     -  379s
     0     0 -379.50637    0 1047 -407.28078 -379.50637  6.82%     -  387s
     0     0 -381.70359    0  933 -407.28078 -381.70359  6.28%     -  619s
     0     0 -381.70359    0  935 -407.28078 -381.70359  6.28%     -  626s
     0     0 -382.80221    0  925 -407.28078 -382.80221  6.01%     -  840s
     0     0 -382.80221    0  925 -407.28078 -382.80221  6.01%     -  850s
     0     0 -383.90082    0  904 -407.28078 -383.90082  5.74%     - 1736s
     0     0 -383.90082    0  925 -407.28078 -383.90082  5.74%     - 1753s
     0     0 -383.90082    0  983 -407.28078 -383.90082  5.74%     - 1790s
     0     0 -383.90082    0  995 -407.28078 -383.90082  5.74%     - 1846s
     0     0 -385.85690    0  862 -407.28078 -385.85690  5.26%     - 6512s
H    0     0                    -403.0184708 -385.85690  4.26%     - 6517s
     0     0 -385.85690    0  922 -403.01847 -385.85690  4.26%     - 6547s
     0     0 -385.85690    0  949 -403.01847 -385.85690  4.26%     - 6568s
     0     0 -385.85690    0  946 -403.01847 -385.85690  4.26%     - 6588s
     0     0 -386.77241    0 1055 -403.01847 -386.77241  4.03%     - 8320s
H    0     0                    -400.8212462 -386.77241  3.51%     - 8326s
     0     0 -386.77241    0 1138 -400.82125 -386.77241  3.51%     - 8335s
     0     0 -387.68792    0 1134 -400.82125 -387.68792  3.28%     - 8580s
     0     0 -387.68792    0 1146 -400.82125 -387.68792  3.28%     - 8590s
     0     0 -388.12114    0  621 -400.82125 -388.12114  3.17%     - 14787s
     0     0 -388.12114    0  608 -400.82125 -388.12114  3.17%     - 14802s
     0     0 -388.12114    0  626 -400.82125 -388.12114  3.17%     - 14820s
     0     0 -388.20905    0  625 -400.82125 -388.20905  3.15%     - 14912s
     0     0 -388.20905    0  630 -400.82125 -388.20905  3.15%     - 14917s
     0     0 -388.20905    0  611 -400.82125 -388.20905  3.15%     - 15796s
     0     0 -388.20905    0  635 -400.82125 -388.20905  3.15%     - 15812s
     0     0 -388.52294    0  625 -400.82125 -388.52294  3.07%     - 15968s
     0     0 -388.52294    0  626 -400.82125 -388.52294  3.07%     - 15976s
     0     0 -388.59102    0  652 -400.82125 -388.59102  3.05%     - 16056s
     0     0 -388.60161    0  641 -400.82125 -388.60161  3.05%     - 16142s
     0     0 -388.67044    0  635 -400.82125 -388.67044  3.03%     - 16950s
     0     0 -388.67044    0  649 -400.82125 -388.67044  3.03%     - 16954s
     0     0 -389.34282    0  617 -400.82125 -389.34282  2.86%     - 17294s
     0     0 -389.42487    0  609 -400.82125 -389.42487  2.84%     - 17364s
     0     0 -389.42487    0  624 -400.82125 -389.42487  2.84%     - 17366s
     0     0 -389.46460    0  637 -400.82125 -389.46460  2.83%     - 17378s
     0     0 -389.72429    0 1202 -400.82125 -389.72429  2.77%     - 19594s
     0     0 -389.78557    0  625 -400.82125 -389.78557  2.75%     - 19849s
     0     0 -389.78557    0  624 -400.82125 -389.78557  2.75%     - 19852s
     0     0 -390.52349    0  624 -400.82125 -390.52349  2.57%     - 36248s
     0     0 -390.52349    0  628 -400.82125 -390.52349  2.57%     - 36256s
     0     0 -390.88088    0  650 -400.82125 -390.88088  2.48%     - 41415s
     0     0 -390.88235    0  654 -400.82125 -390.88235  2.48%     - 41441s
     0     0 -390.88969    0  668 -400.82125 -390.88969  2.48%     - 41463s
     0     0 -390.88969    0  666 -400.82125 -390.88969  2.48%     - 41471s
     0     0 -391.12648    0  555 -400.82125 -391.12648  2.42%     - 48052s
     0     0 -391.25589    0  615 -400.82125 -391.25589  2.39%     - 48121s
     0     0 -391.25589    0  556 -400.82125 -391.25589  2.39%     - 48125s
     0     0 -391.25589    0  519 -400.82125 -391.25589  2.39%     - 48135s
     0     0 -391.41697    0  609 -400.82125 -391.41697  2.35%     - 50304s
     0     0 -391.49669    0 1248 -400.82125 -391.49669  2.33%     - 50487s
     0     0 -391.52857    0 1255 -400.82125 -391.52857  2.32%     - 50514s
     0     0 -391.52857    0 1253 -400.82125 -391.52857  2.32%     - 50518s
     0     0 -391.52857    0 1183 -400.82125 -391.52857  2.32%     - 50980s
     0     0 -391.52857    0 1147 -400.82125 -391.52857  2.32%     - 51064s
     0     0 -391.52857    0  974 -400.82125 -391.52857  2.32%     - 51070s
     0     0 -391.52857    0 1108 -400.82125 -391.52857  2.32%     - 51073s
     0     0 -391.54574    0 1107 -400.82125 -391.54574  2.31%     - 51075s
     0     0 -391.54574    0 1107 -400.82125 -391.54574  2.31%     - 51076s
     0     0 -392.35512    0  522 -400.82125 -392.35512  2.11%     - 51082s
     0     0 -392.35512    0 1116 -400.82125 -392.35512  2.11%     - 51091s
     0     0 -392.35512    0 1094 -400.82125 -392.35512  2.11%     - 51095s
     0     0 -392.35512    0  596 -400.82125 -392.35512  2.11%     - 51096s
     0     0 -392.38448    0  579 -400.82125 -392.38448  2.10%     - 51097s
     0     0 -392.38448    0  585 -400.82125 -392.38448  2.10%     - 51097s
     0     0 -392.90784    0 1003 -400.82125 -392.90784  1.97%     - 51098s
     0     0 -393.20898    0  501 -400.82125 -393.20898  1.90%     - 51098s
     0     0 -393.37107    0  563 -400.82125 -393.37107  1.86%     - 51099s
     0     0 -393.37107    0  562 -400.82125 -393.37107  1.86%     - 51099s
     0     0 -393.37567    0 1029 -400.82125 -393.37567  1.86%     - 51100s
     0     0 -393.40547    0 1043 -400.82125 -393.40547  1.85%     - 51100s
     0     0 -393.40547    0 1058 -400.82125 -393.40547  1.85%     - 51100s
     0     0 -393.77167    0 1001 -400.82125 -393.77167  1.76%     - 51101s
     0     0 -393.88426    0 1013 -400.82125 -393.88426  1.73%     - 51102s
     0     0 -393.88426    0 1016 -400.82125 -393.88426  1.73%     - 51102s
     0     0 -393.97305    0 1056 -400.82125 -393.97305  1.71%     - 51103s
     0     0 -394.28706    0 1046 -400.82125 -394.28706  1.63%     - 51104s
     0     0 -394.41250    0 1011 -400.82125 -394.41250  1.60%     - 51104s
     0     0 -394.50408    0  995 -400.82125 -394.50408  1.58%     - 51104s
     0     0 -394.50408    0 1002 -400.82125 -394.50408  1.58%     - 51104s
     0     0 -394.71281    0  629 -400.82125 -394.71281  1.52%     - 51105s
     0     0 -394.76264    0  621 -400.82125 -394.76264  1.51%     - 51106s
     0     0 -394.78030    0 1045 -400.82125 -394.78030  1.51%     - 51106s
     0     0 -394.78030    0 1044 -400.82125 -394.78030  1.51%     - 51106s
     0     0 -394.78030    0 1044 -400.82125 -394.78030  1.51%     - 51107s
     0     0 -394.86017    0 1043 -400.82125 -394.86017  1.49%     - 51108s
     0     0 -394.86017    0 1045 -400.82125 -394.86017  1.49%     - 51108s
     0     0 -394.87345    0 1052 -400.82125 -394.87345  1.48%     - 51109s
     0     0 -394.87345    0 1053 -400.82125 -394.87345  1.48%     - 51109s
     0     0 -394.91793    0  553 -400.82125 -394.91793  1.47%     - 51110s
     0     0 -395.05453    0 1048 -400.82125 -395.05453  1.44%     - 51111s
     0     0 -395.05453    0 1047 -400.82125 -395.05453  1.44%     - 51111s
     0     0 -396.00242    0 1031 -400.82125 -396.00242  1.20%     - 51112s
     0     0 -396.02394    0 1054 -400.82125 -396.02394  1.20%     - 51113s
     0     0 -396.02394    0 1053 -400.82125 -396.02394  1.20%     - 51113s
     0     0 -396.02866    0 1061 -400.82125 -396.02866  1.20%     - 51114s
     0     0 -396.16403    0 1054 -400.82125 -396.16403  1.16%     - 51114s
     0     0 -396.19888    0 1048 -400.82125 -396.19888  1.15%     - 51114s
     0     0 -396.20069    0 1038 -400.82125 -396.20069  1.15%     - 51115s
     0     0 -396.30511    0  533 -400.82125 -396.30511  1.13%     - 51118s
     0     0 -396.32006    0  540 -400.82125 -396.32006  1.12%     - 51119s
     0     0 -396.36883    0  541 -400.82125 -396.36883  1.11%     - 51119s
     0     0 -396.42082    0  537 -400.82125 -396.42082  1.10%     - 51119s
     0     0 -396.42190    0  533 -400.82125 -396.42190  1.10%     - 51119s
     0     0 -396.43770    0  521 -400.82125 -396.43770  1.09%     - 51120s
H    0     0                    -398.6240216 -396.43770  0.55%     - 51120s
     0     0 -396.44120    0  521 -398.62402 -396.44120  0.55%     - 51120s
     0     0 -396.44425    0  524 -398.62402 -396.44425  0.55%     - 51120s
     0     0 -396.44425    0  524 -398.62402 -396.44425  0.55%     - 51121s
     0     0 -396.44460    0  523 -398.62402 -396.44460  0.55%     - 51122s
     0     0 -396.44460    0  287 -398.62402 -396.44460  0.55%     - 51124s
     0     0 -396.44460    0  236 -398.62402 -396.44460  0.55%     - 51124s
     0     0 -396.63229    0  256 -398.62402 -396.63229  0.50%     - 51124s
     0     0 -397.49709    0  312 -398.62402 -397.49709  0.28%     - 51125s
     0     0 -397.52541    0  245 -398.62402 -397.52541  0.28%     - 51125s
     0     0 -397.52541    0  240 -398.62402 -397.52541  0.28%     - 51125s
     0     0 -397.60484    0  325 -398.62402 -397.60484  0.26%     - 51125s
     0     0 -397.99624    0  221 -398.62402 -397.99624  0.16%     - 51125s
     0     0     cutoff    0      -398.62402 -398.62402  0.00%     - 51125s

Explored 1 nodes (1739151 simplex iterations) in 51126.06 seconds
Thread count was 1 (of 80 available processors)

Solution count 10: -398.624 -398.624 -398.624 ... -468.009

Optimal solution found (tolerance 1.00e-04)
Best objective -3.986240216034e+02, best bound -3.986240216034e+02, gap 0.0000%
